(declare-fun temp13859_1 () (_ BitVec 64))
(declare-fun temp13859_2 () (_ BitVec 64))
(declare-fun var77740 () (_ BitVec 64))
(declare-fun k!0 () Bool)
(declare-fun ARGNAME_input_1_NAMEEND_DIM () (_ BitVec 64))
(declare-fun ARGNAME_data_format_NAMEEND_STRFMT () (_ BitVec 64))
(declare-fun temp13859_3 () (_ BitVec 64))
(declare-fun ARGNAME_input_2_NAMEEND_DIM () (_ BitVec 64))
(declare-fun var77770 () (_ BitVec 64))
(declare-fun temp13859_4 () (_ BitVec 64))
(declare-fun temp13859_5 () (_ BitVec 64))
(declare-fun ARGNAME_input_1_NAMEEND_DIMSIZE
             ()
             (Array (_ BitVec 64) (_ BitVec 64)))
(declare-fun temp13859_6 () (_ BitVec 64))
(declare-fun temp13859_7 () (_ BitVec 64))
(declare-fun temp13859_8 () (_ BitVec 64))
(declare-fun temp13859_9 () (_ BitVec 64))
(declare-fun temp13859_10 () (_ BitVec 64))
(declare-fun temp13859_11 () (_ BitVec 64))
(declare-fun temp13859_12 () (_ BitVec 64))
(declare-fun temp13859_13 () (_ BitVec 64))
(declare-fun temp13859_14 () (_ BitVec 64))
(declare-fun temp13859_15 () (_ BitVec 64))
(declare-fun temp13859_16 () (_ BitVec 64))
(declare-fun temp13859_17 () (_ BitVec 64))
(declare-fun temp13859_18 () (_ BitVec 64))
(declare-fun var77799 () (_ BitVec 64))
(declare-fun temp13859_19 () (_ BitVec 64))
(declare-fun ARGNAME_input_2_NAMEEND_DIMSIZE
             ()
             (Array (_ BitVec 64) (_ BitVec 64)))
(declare-fun temp13859_20 () (_ BitVec 64))
(declare-fun temp13859_21 () (_ BitVec 64))
(declare-fun temp13859_22 () (_ BitVec 64))
(declare-fun temp13859_23 () (_ BitVec 64))
(declare-fun temp13859_24 () (_ BitVec 64))
(declare-fun temp13859_25 () (_ BitVec 64))
(declare-fun temp13859_26 () (_ BitVec 64))
(declare-fun temp13859_27 () (_ BitVec 64))
(declare-fun temp13859_28 () (_ BitVec 64))
(declare-fun temp13859_29 () (_ BitVec 64))
(declare-fun temp13859_30 () (_ BitVec 64))
(declare-fun temp13859_31 () (_ BitVec 64))
(declare-fun temp13859_32 () (_ BitVec 64))
(declare-fun var77832 () (_ BitVec 64))
(declare-fun temp13859_33 () (_ BitVec 64))
(declare-fun temp13859_34 () (_ BitVec 64))
(declare-fun var77833 () (_ BitVec 64))
(declare-fun var77834 () (_ BitVec 64))
(declare-fun temp13859_35 () (_ BitVec 64))
(declare-fun temp13859_36 () (_ BitVec 64))
(declare-fun var275510 () (_ BitVec 64))
(declare-fun temp13859_37 () (_ BitVec 64))
(declare-fun var275528 () (_ BitVec 64))
(declare-fun temp13859_38 () (_ BitVec 64))
(declare-fun temp13859_39 () (_ BitVec 64))
(declare-fun var406582 () (_ BitVec 64))
(declare-fun temp13859_40 () (_ BitVec 64))
(declare-fun var406600 () (_ BitVec 64))
(declare-fun temp13859_41 () (_ BitVec 64))
(declare-fun temp13859_42 () (_ BitVec 64))
(declare-fun var537654 () (_ BitVec 64))
(declare-fun temp13859_43 () (_ BitVec 64))
(declare-fun var537672 () (_ BitVec 64))
(declare-fun temp13859_44 () (_ BitVec 64))
(declare-fun temp13859_46 () (_ BitVec 64))
(declare-fun temp13859_45 () (_ BitVec 64))
(declare-fun temp13859_48 () (_ BitVec 64))
(declare-fun temp13859_47 () (_ BitVec 64))
(declare-fun temp13859_50 () (_ BitVec 64))
(declare-fun temp13859_49 () (_ BitVec 64))
(declare-fun temp13859_51 () (_ BitVec 64))
(declare-fun var861259 () (_ BitVec 64))
(declare-fun var861238 () (_ BitVec 64))
(declare-fun var664611 () (_ BitVec 64))
(declare-fun temp13859_52 () (_ BitVec 64))
(declare-fun temp13859_53 () (_ BitVec 64))
(declare-fun var1057842 () (_ BitVec 64))
(declare-fun temp13859_54 () (_ BitVec 64))
(declare-fun var1123378 () (_ BitVec 64))
(declare-fun temp13859_55 () (_ BitVec 64))
(declare-fun var1188914 () (_ BitVec 64))
(assert (or (= ARGNAME_data_format_NAMEEND_STRFMT #x0000000000000000)
    (= ARGNAME_data_format_NAMEEND_STRFMT #x0000000000000001)
    (= ARGNAME_data_format_NAMEEND_STRFMT #x0000000000000002)
    (= ARGNAME_data_format_NAMEEND_STRFMT #x0000000000000003)
    (= ARGNAME_data_format_NAMEEND_STRFMT #x0000000000000004)
    (= ARGNAME_data_format_NAMEEND_STRFMT #x0000000000000005)))
(assert (= temp13859_1 #x0000000000000005))
(assert (= var77740
   (ite (= ARGNAME_input_1_NAMEEND_DIM temp13859_1)
        #x0000000000000001
        #x0000000000000000)))
(assert (= temp13859_2 #x0000000000000001))
(assert (= var77740 temp13859_2))
(assert (= temp13859_3 #x0000000000000005))
(assert (= var77770
   (ite (= ARGNAME_input_2_NAMEEND_DIM temp13859_3)
        #x0000000000000001
        #x0000000000000000)))
(assert (= temp13859_4 #x0000000000000001))
(assert (= var77770 temp13859_4))
(assert (= temp13859_5 #x0000000000000000))
(assert (= temp13859_6 (select ARGNAME_input_1_NAMEEND_DIMSIZE temp13859_5)))
(assert (= temp13859_7 #x0000000000000001))
(assert (= temp13859_8 (select ARGNAME_input_1_NAMEEND_DIMSIZE temp13859_7)))
(assert (= temp13859_9 #x0000000000000002))
(assert (= temp13859_10 (select ARGNAME_input_1_NAMEEND_DIMSIZE temp13859_9)))
(assert (= temp13859_11 #x0000000000000003))
(assert (= temp13859_12 (select ARGNAME_input_1_NAMEEND_DIMSIZE temp13859_11)))
(assert (= temp13859_13 #x0000000000000004))
(assert (= temp13859_14 (select ARGNAME_input_1_NAMEEND_DIMSIZE temp13859_13)))
(assert (= temp13859_15 #x0000000000000005))
(assert (= temp13859_16 (select ARGNAME_input_1_NAMEEND_DIMSIZE temp13859_15)))
(assert (= temp13859_17 #x0000000000000003))
(assert (= temp13859_18 (select ARGNAME_input_1_NAMEEND_DIMSIZE temp13859_17)))
(assert (= var77799 temp13859_18))
(assert (= temp13859_19 #x0000000000000000))
(assert (= temp13859_20 (select ARGNAME_input_2_NAMEEND_DIMSIZE temp13859_19)))
(assert (= temp13859_21 #x0000000000000001))
(assert (= temp13859_22 (select ARGNAME_input_2_NAMEEND_DIMSIZE temp13859_21)))
(assert (= temp13859_23 #x0000000000000002))
(assert (= temp13859_24 (select ARGNAME_input_2_NAMEEND_DIMSIZE temp13859_23)))
(assert (= temp13859_25 #x0000000000000003))
(assert (= temp13859_26 (select ARGNAME_input_2_NAMEEND_DIMSIZE temp13859_25)))
(assert (= temp13859_27 #x0000000000000004))
(assert (= temp13859_28 (select ARGNAME_input_2_NAMEEND_DIMSIZE temp13859_27)))
(assert (= temp13859_29 #x0000000000000005))
(assert (= temp13859_30 (select ARGNAME_input_2_NAMEEND_DIMSIZE temp13859_29)))
(assert (= temp13859_31 #x0000000000000004))
(assert (= temp13859_32 (select ARGNAME_input_2_NAMEEND_DIMSIZE temp13859_31)))
(assert (= var77832 temp13859_32))
(assert (= temp13859_33 #x0000000000000004))
(assert (= temp13859_34 (select ARGNAME_input_1_NAMEEND_DIMSIZE temp13859_33)))
(assert (= var77833 temp13859_34))
(assert (= var77834 (ite (= var77832 var77833) #x0000000000000001 #x0000000000000000)))
(assert (= temp13859_35 #x0000000000000001))
(assert (= var77834 temp13859_35))
(assert (= temp13859_36 #x0000000000000001))
(assert (= var275510 temp13859_36))
(assert (= temp13859_37 #x0000000000000001))
(assert (= var275528
   (ite (bvslt var275510 temp13859_37) #x0000000000000001 #x0000000000000000)))
(assert (= temp13859_38 #x0000000000000000))
(assert (= var275528 temp13859_38))
(assert (= temp13859_39 #x0000000000000001))
(assert (= var406582 temp13859_39))
(assert (= temp13859_40 #x0000000000000001))
(assert (= var406600
   (ite (bvslt var406582 temp13859_40) #x0000000000000001 #x0000000000000000)))
(assert (= temp13859_41 #x0000000000000000))
(assert (= var406600 temp13859_41))
(assert (= temp13859_42 #x0000000000000001))
(assert (= var537654 temp13859_42))
(assert (= temp13859_43 #x0000000000000001))
(assert (= var537672
   (ite (bvslt var537654 temp13859_43) #x0000000000000001 #x0000000000000000)))
(assert (= temp13859_44 #x0000000000000000))
(assert (= var537672 temp13859_44))
(assert (= temp13859_46 #x00000000000000ff))
(assert (= temp13859_45 temp13859_46))
(assert (= temp13859_48 #x00000000000000ff))
(assert (= temp13859_47 temp13859_48))
(assert (= temp13859_50 #x00000000000000ff))
(assert (= temp13859_49 temp13859_50))
(assert (= temp13859_51 #x0000000000000000))
(assert (= var861259 temp13859_51))
(assert (= var861238 var861259))
(assert (= var664611 var861238))
(assert (= temp13859_52 #x0000000000000000))
(assert (= var664611 temp13859_52))
(assert (= temp13859_53 #x0000000000008000))
(assert (= var1057842 temp13859_53))
(assert (= temp13859_54 #x0000000000040000))
(assert (= var1123378 temp13859_54))
(assert (= temp13859_55 #x0000000000200000))
(assert (= var1188914 temp13859_55))
(model-add temp13859_1 () (_ BitVec 64) #x0000000000000005)
(model-add temp13859_2 () (_ BitVec 64) #x0000000000000001)
(model-add var77740 () (_ BitVec 64) #x0000000000000001)
(model-del k!0)
(model-add ARGNAME_input_1_NAMEEND_DIM
           ()
           (_ BitVec 64)
           (ite k!0 #x0000000000000005 (bvnot #x0000000000000005)))

